71
100
80	11
79	9
78	11
77	12
76	9
75	12
74	8
73	18
72	3
71	8
70	6
69	6
68	6
67	11
66	11
65	16
64	13
63	10
62	13
61	14
60	9
59	16
58	14
57	9
56	11
55	6
54	14
53	10
52	10
51	10
50	13
49	9
48	10
47	16
46	9
45	15
44	5
43	8
42	11
41	8
40	11
39	12
38	10
37	16
36	15
35	10
34	14
33	7
32	12
31	8
30	8
29	8
28	11
27	16
26	12
25	10
24	13
23	10
22	10
21	7
20	12
19	19
18	11
17	12
16	8
15	8
14	5
13	9
12	8
11	10
10	8
